0
Node Left Objective IInf Best_Integer Best_Bound ItCnt Gap
0+ 0 nan nan 883.5817 0.0000 nan 100.00%
0+ 0 nan nan 639.6325 0.0000 nan 100.00%
0 0 262.6193 7 639.6325 262.6193 42 58.94%
0 0 269.9172 9 639.6325 LiftProj:4 54 57.80%
0+ 0 nan nan 613.3392 269.9172 nan 55.99%
0 0 273.1751 9 613.3392 LiftProj:3 62 55.46%
0 0 274.6212 9 613.3392 LiftProj:3 70 55.23%
0 0 276.4280 8 613.3392 LiftProj:4 77 54.93%
0 0 276.7630 9 613.3392 LiftProj:5 84 54.88%
0 0 277.4106 9 613.3392 LiftProj:4 91 54.77%
0 0 277.9436 9 613.3392 LiftProj:3 100 54.68%
0 0 280.7537 9 613.3392 LiftProj:5 112 54.23%
0 0 281.0805 9 613.3392 LiftProj:5 119 54.17%
0 0 282.0959 8 613.3392 LiftProj:4 129 54.01%
0 0 282.2182 9 613.3392 LiftProj:4 133 53.99%
0 0 283.7263 8 613.3392 LiftProj:4 139 53.74%
0 0 284.3795 9 613.3392 LiftProj:4 147 53.63%
0 0 284.5020 9 613.3392 LiftProj:3 150 53.61%
0 0 285.0525 9 613.3392 LiftProj:4 157 53.52%
0 0 286.4791 9 613.3392 LiftProj:4 168 53.29%
0 0 287.2050 9 613.3392 LiftProj:4 173 53.17%
0 0 287.9081 9 613.3392 LiftProj:4 184 53.06%
0 0 287.9464 9 613.3392 LiftProj:3 186 53.05%
0 0 287.9865 9 613.3392 LiftProj:3 189 53.05%
0 2 287.9865 9 613.3392 290.1546 189 52.69%
CPXPARAM_MIP_Cuts_LiftProj 14
1
Node Left Objective IInf Best_Integer Best_Bound ItCnt Gap
0+ 0 nan nan 883.5817 0.0000 nan 100.00%
0 0 0 262.6193 262.6193 40 0.00% 0
CPXPARAM_MIP_Cuts_LiftProj 0
2
Node Left Objective IInf Best_Integer Best_Bound ItCnt Gap
0+ 0 nan nan 883.5817 0.0000 nan 100.00%
0+ 0 nan nan 639.6325 0.0000 nan 100.00%
0 0 269.4766 5 639.6325 269.4766 42 57.87%
0 0 271.6958 8 639.6325 LiftProj:4 54 57.52%
0+ 0 nan nan 428.5759 271.6958 nan 36.60%
0 0 274.2255 7 428.5759 LiftProj:4 60 36.01%
0 0 281.2689 7 428.5759 LiftProj:3 69 34.37%
0+ 0 nan nan 415.0905 281.2689 nan 32.24%
0 0 288.1589 8 415.0905 LiftProj:4 77 30.58%
0 0 292.7053 8 415.0905 LiftProj:5 89 29.48%
0 0 310.5515 7 415.0905 LiftProj:6 113 25.18%
0 0 313.8628 7 415.0905 LiftProj:6 123 24.39%
0 0 315.2557 8 415.0905 LiftProj:4 131 24.05%
0 0 316.4502 8 415.0905 LiftProj:2 142 23.76%
0 0 317.8774 9 415.0905 LiftProj:4 148 23.42%
0 0 319.4642 8 415.0905 LiftProj:4 155 23.04%
0 0 324.6942 8 415.0905 LiftProj:4 169 21.78%
0 0 326.2436 8 415.0905 LiftProj:4 173 21.40%
0 0 326.7069 9 415.0905 LiftProj:4 175 21.29%
0 0 330.2373 9 415.0905 LiftProj:4 182 20.44%
0 0 330.4915 9 415.0905 LiftProj:4 186 20.38%
0 0 334.3085 8 415.0905 LiftProj:3 195 19.46%
0 0 336.8941 8 415.0905 LiftProj:3 204 18.84%
0 0 338.6076 8 415.0905 LiftProj:5 217 18.43%
0 0 338.6598 8 415.0905 LiftProj:5 222 18.41%
0 0 338.8679 8 415.0905 LiftProj:2 227 18.36%
0 0 339.5760 8 415.0905 LiftProj:3 235 18.19%
0 0 341.6864 9 415.0905 LiftProj:3 245 17.68%
0 0 344.1681 8 415.0905 LiftProj:3 258 17.09%
0 0 344.8026 8 415.0905 LiftProj:3 267 16.93%
0 0 345.1796 9 415.0905 LiftProj:3 274 16.84%
0 0 345.2778 8 415.0905 LiftProj:5 283 16.82%
0 0 345.3963 7 415.0905 LiftProj:2 289 16.79%
0 0 345.4044 7 415.0905 LiftProj:2 290 16.79%
0 2 346.1245 8 415.0905 346.1579 290 16.61%
CPXPARAM_MIP_Cuts_LiftProj 20
3
Node Left Objective IInf Best_Integer Best_Bound ItCnt Gap
0+ 0 nan nan 883.5817 0.0000 nan 100.00%
0 0 314.8220 1 883.5817 314.8220 38 64.37%
0+ 0 nan nan 315.1239 314.8220 nan 0.10%
0+ 0 nan nan 314.8876 314.8220 nan 0.02%
0 0 cutoff 314.8876 314.8220 40 0.02% 0
CPXPARAM_MIP_Cuts_LiftProj 0
4
Node Left Objective IInf Best_Integer Best_Bound ItCnt Gap
0+ 0 nan nan 693.8542 0.0000 nan 100.00%
0+ 0 nan nan 634.5912 0.0000 nan 100.00%
0 0 405.5114 7 634.5912 405.5114 50 36.10%
0 0 406.3290 9 634.5912 LiftProj:3 56 35.97%
0+ 0 nan nan 441.1644 406.3290 nan 7.90%
0 0 407.8398 9 441.1644 LiftProj:1 57 7.55%
0 0 409.5054 9 441.1644 LiftProj:4 63 7.18%
0 0 409.7754 9 441.1644 LiftProj:4 66 7.12%
0 0 409.8391 9 441.1644 LiftProj:4 71 7.10%
0 0 411.1304 9 441.1644 LiftProj:5 77 6.81%
0 0 413.7079 9 441.1644 LiftProj:4 84 6.22%
0 0 414.1038 9 441.1644 LiftProj:3 87 6.13%
0 0 414.1285 9 441.1644 LiftProj:2 90 6.13%
0 0 414.2365 9 441.1644 LiftProj:2 93 6.10%
0 0 414.2649 9 441.1644 LiftProj:3 95 6.10%
0 2 416.1440 7 441.1644 425.6051 95 3.53%
CPXPARAM_MIP_Cuts_LiftProj 12
5
Node Left Objective IInf Best_Integer Best_Bound ItCnt Gap
0+ 0 nan nan 693.8542 0.0000 nan 100.00%
0 0 405.5114 1 693.8542 405.5114 49 41.56%
0+ 0 nan nan 407.3057 405.5114 nan 0.44%
0 0 0 405.9187 405.9187 52 0.00% 0
CPXPARAM_MIP_Cuts_LiftProj 0
6
Node Left Objective IInf Best_Integer Best_Bound ItCnt Gap
0+ 0 nan nan 693.8542 0.0000 nan 100.00%
0+ 0 nan nan 652.0517 0.0000 nan 100.00%
0+ 0 nan nan 648.3061 0.0000 nan 100.00%
0 0 405.5114 7 648.3061 405.5114 44 37.45%
0 0 408.3887 9 648.3061 LiftProj:4 52 37.01%
0+ 0 nan nan 441.1644 408.3887 nan 7.43%
0 0 412.9609 9 441.1644 LiftProj:5 62 6.39%
0 0 415.6643 9 441.1644 LiftProj:4 66 5.78%
0 0 416.9192 9 441.1644 LiftProj:3 73 5.50%
0 0 417.1946 9 441.1644 LiftProj:5 79 5.43%
0 0 419.3281 9 441.1644 LiftProj:4 89 4.95%
0 0 420.1138 9 441.1644 LiftProj:3 94 4.77%
0 0 421.5581 9 441.1644 LiftProj:2 98 4.44%
0 0 421.6977 9 441.1644 LiftProj:2 100 4.41%
0 0 421.7668 8 441.1644 LiftProj:2 105 4.40%
0 0 421.9031 9 441.1644 LiftProj:2 108 4.37%
0 0 422.5701 9 441.1644 LiftProj:3 112 4.21%
0 0 422.6125 9 441.1644 LiftProj:3 115 4.21%
0 0 422.8493 9 441.1644 LiftProj:4 119 4.15%
0 0 423.6429 8 441.1644 LiftProj:2 128 3.97%
0 0 423.6532 9 441.1644 LiftProj:5 133 3.97%
0 2 425.2010 6 441.1644 425.5682 133 3.54%
CPXPARAM_MIP_Cuts_LiftProj 11
7
Node Left Objective IInf Best_Integer Best_Bound ItCnt Gap
0+ 0 nan nan 693.8542 0.0000 nan 100.00%
0 0 0 425.0746 425.0746 34 0.00% 0
CPXPARAM_MIP_Cuts_LiftProj 0
8
Node Left Objective IInf Best_Integer Best_Bound ItCnt Gap
0+ 0 nan nan 845.6683 0.0000 nan 100.00%
0+ 0 nan nan 648.8417 0.0000 nan 100.00%
0 0 484.8467 7 648.8417 484.8467 54 25.28%
0 0 500.9085 9 648.8417 LiftProj:4 65 22.80%
0+ 0 nan nan 626.4130 500.9085 nan 20.04%
0 0 511.5610 8 626.4130 LiftProj:4 70 18.33%
0 0 513.6414 9 626.4130 LiftProj:5 75 18.00%
0+ 0 nan nan 607.3004 513.6414 nan 15.42%
0 0 516.6293 9 607.3004 LiftProj:4 80 14.93%
0 0 516.7478 9 607.3004 LiftProj:5 84 14.91%
0 0 517.0185 9 607.3004 LiftProj:5 89 14.87%
0 0 518.4616 9 607.3004 LiftProj:6 96 14.63%
0 0 521.2109 9 607.3004 LiftProj:7 104 14.18%
0 0 522.1875 9 607.3004 LiftProj:3 109 14.01%
0 0 522.5293 9 607.3004 LiftProj:7 113 13.96%
0 0 525.0301 9 607.3004 LiftProj:3 124 13.55%
0 0 525.7246 9 607.3004 LiftProj:9 133 13.43%
0 0 526.4225 9 607.3004 LiftProj:4 137 13.32%
0 0 527.6197 9 607.3004 LiftProj:6 146 13.12%
0 0 527.7526 9 607.3004 LiftProj:4 153 13.10%
0 0 528.3283 9 607.3004 LiftProj:7 156 13.00%
0 0 528.9760 9 607.3004 LiftProj:4 162 12.90%
0 0 529.2827 9 607.3004 LiftProj:4 167 12.85%
0 0 529.3283 9 607.3004 LiftProj:4 169 12.84%
0 0 529.6179 9 607.3004 LiftProj:11 173 12.79%
0 0 530.0456 9 607.3004 LiftProj:4 180 12.72%
0 0 530.5608 9 607.3004 LiftProj:3 188 12.64%
0 0 530.9651 9 607.3004 LiftProj:7 194 12.57%
0 0 531.0985 9 607.3004 LiftProj:5 203 12.55%
0 0 531.5551 9 607.3004 LiftProj:3 208 12.47%
0 0 531.7866 9 607.3004 LiftProj:3 214 12.43%
0 0 531.8046 9 607.3004 LiftProj:3 217 12.43%
0 2 531.8046 9 607.3004 531.8075 217 12.43%
CPXPARAM_MIP_Cuts_LiftProj 14
9
Node Left Objective IInf Best_Integer Best_Bound ItCnt Gap
0+ 0 nan nan 845.6683 0.0000 nan 100.00%
0 0 0 484.8467 484.8467 43 0.00% 0
CPXPARAM_MIP_Cuts_LiftProj 0
10
Node Left Objective IInf Best_Integer Best_Bound ItCnt Gap
0+ 0 nan nan 845.6683 0.0000 nan 100.00%
0 0 498.6071 5 845.6683 498.6071 38 41.04%
0+ 0 nan nan 697.1349 498.6071 nan 28.48%
0 0 498.6071 5 697.1349 LiftProj:1 40 28.48%
0+ 0 nan nan 695.2244 498.6071 nan 28.28%
0 0 498.6071 6 695.2244 LiftProj:1 42 28.28%
0 2 498.6071 6 695.2244 498.6071 42 28.28%
CPXPARAM_MIP_Cuts_LiftProj 2
11
Node Left Objective IInf Best_Integer Best_Bound ItCnt Gap
0+ 0 nan nan 845.6683 0.0000 nan 100.00%
0 0 0 561.1585 561.1585 45 0.00% 0
CPXPARAM_MIP_Cuts_LiftProj 0
12
Node Left Objective IInf Best_Integer Best_Bound ItCnt Gap
0+ 0 nan nan 656.4681 0.0000 nan 100.00%
0+ 0 nan nan 534.4657 0.0000 nan 100.00%
0 0 386.2283 7 534.4657 386.2283 47 27.74%
0 0 386.2283 7 534.4657 LiftProj:2 51 27.74%
0+ 0 nan nan 527.2580 386.2283 nan 26.75%
0 0 386.2347 9 527.2580 LiftProj:2 53 26.75%
0 2 386.2347 9 527.2580 386.2507 53 26.74%
CPXPARAM_MIP_Cuts_LiftProj 3
13
Node Left Objective IInf Best_Integer Best_Bound ItCnt Gap
0+ 0 nan nan 656.4681 0.0000 nan 100.00%
0 0 0 389.1110 389.1110 45 0.00% 0
CPXPARAM_MIP_Cuts_LiftProj 0
14
Node Left Objective IInf Best_Integer Best_Bound ItCnt Gap
0+ 0 nan nan 656.4681 0.0000 nan 100.00%
0+ 0 nan nan 534.4657 0.0000 nan 100.00%
0 0 386.2283 7 534.4657 386.2283 36 27.74%
0+ 0 nan nan 527.9269 386.2283 nan 26.84%
0 2 386.2283 7 527.9269 386.2283 36 26.84%
CPXPARAM_MIP_Cuts_LiftProj 0
15
Node Left Objective IInf Best_Integer Best_Bound ItCnt Gap
0+ 0 nan nan 656.4681 0.0000 nan 100.00%
0 0 0 410.1756 410.1756 35 0.00% 0
CPXPARAM_MIP_Cuts_LiftProj 0
16
Node Left Objective IInf Best_Integer Best_Bound ItCnt Gap
0+ 0 nan nan 673.4267 0.0000 nan 100.00%
0+ 0 nan nan 482.5302 0.0000 nan 100.00%
0 0 417.5617 7 482.5302 417.5617 54 13.46%
0 0 417.5617 7 482.5302 LiftProj:2 58 13.46%
0+ 0 nan nan 479.1117 417.5617 nan 12.85%
0 0 417.6385 8 479.1117 LiftProj:1 61 12.83%
0+ 0 nan nan 465.6195 417.6385 nan 10.30%
0 0 417.6408 9 465.6195 LiftProj:1 63 10.30%
0 2 417.6429 8 465.6195 417.6429 63 10.30%
CPXPARAM_MIP_Cuts_LiftProj 4
17
Node Left Objective IInf Best_Integer Best_Bound ItCnt Gap
0+ 0 nan nan 673.4267 0.0000 nan 100.00%
0 0 0 425.9937 425.9937 45 0.00% 0
CPXPARAM_MIP_Cuts_LiftProj 0
18
Node Left Objective IInf Best_Integer Best_Bound ItCnt Gap
0+ 0 nan nan 673.4267 0.0000 nan 100.00%
0 0 423.0032 5 673.4267 423.0032 39 37.19%
0+ 0 nan nan 591.6412 423.0032 nan 28.50%
0 0 423.0032 5 591.6412 LiftProj:2 43 28.50%
0+ 0 nan nan 500.6580 423.0032 nan 15.51%
0 0 423.0416 7 500.6580 LiftProj:1 45 15.50%
0+ 0 nan nan 475.1344 423.0416 nan 10.96%
0 0 423.0685 7 475.1344 LiftProj:1 47 10.96%
0 0 423.0685 7 475.1344 LiftProj:1 48 10.96%
0 2 423.0854 6 475.1344 423.8694 48 10.79%
CPXPARAM_MIP_Cuts_LiftProj 5
19
Node Left Objective IInf Best_Integer Best_Bound ItCnt Gap
0+ 0 nan nan 673.4267 0.0000 nan 100.00%
0+ 0 nan nan 448.7922 0.0000 nan 100.00%
0 0 0 446.2379 446.2379 37 0.00% 0
CPXPARAM_MIP_Cuts_LiftProj 0
20
Node Left Objective IInf Best_Integer Best_Bound ItCnt Gap
0+ 0 nan nan 525.1284 0.0000 nan 100.00%
0+ 0 nan nan 499.7053 0.0000 nan 100.00%
0 0 283.8374 7 499.7053 283.8374 45 43.20%
0+ 0 nan nan 335.4671 283.8374 nan 15.39%
0 0 283.8374 7 335.4671 LiftProj:2 49 15.39%
0 0 284.7993 8 335.4671 LiftProj:2 53 15.10%
0 0 288.3041 9 335.4671 LiftProj:2 55 14.06%
0+ 0 nan nan 315.2212 288.3041 nan 8.54%
0 0 289.8438 9 315.2212 LiftProj:2 58 8.05%
0 0 290.1303 8 315.2212 LiftProj:3 61 7.96%
0 0 290.8399 9 315.2212 LiftProj:4 64 7.73%
0 0 292.6779 9 315.2212 LiftProj:5 68 7.15%
0 0 300.4977 9 315.2212 LiftProj:5 81 4.67%
0 0 300.7302 9 315.2212 LiftProj:3 86 4.60%
0 0 300.8390 9 315.2212 LiftProj:4 90 4.56%
0 0 302.1693 9 315.2212 LiftProj:3 99 4.14%
0 0 302.2435 9 315.2212 LiftProj:2 102 4.12%
0 2 302.4421 6 315.2212 302.7616 102 3.95%
CPXPARAM_MIP_Cuts_LiftProj 9
21
Node Left Objective IInf Best_Integer Best_Bound ItCnt Gap
0+ 0 nan nan 525.1284 0.0000 nan 100.00%
0 0 0 283.8374 283.8374 44 0.00% 0
CPXPARAM_MIP_Cuts_LiftProj 0
22
Node Left Objective IInf Best_Integer Best_Bound ItCnt Gap
0+ 0 nan nan 525.1284 0.0000 nan 100.00%
0+ 0 nan nan 502.7786 0.0000 nan 100.00%
0 0 286.9244 7 502.7786 286.9244 33 42.93%
0+ 0 nan nan 406.3795 286.9244 nan 29.39%
0 0 292.6917 8 406.3795 LiftProj:4 43 27.98%
0+ 0 nan nan 392.1710 292.6917 nan 25.37%
0 0 294.7817 9 392.1710 LiftProj:3 50 24.83%
0 0 296.1755 9 392.1710 LiftProj:4 55 24.48%
0 0 301.8404 9 392.1710 LiftProj:4 59 23.03%
0+ 0 nan nan 315.4732 301.8404 nan 4.32%
0 0 303.6026 9 315.4732 LiftProj:6 65 3.76%
0 0 304.5191 8 315.4732 LiftProj:3 69 3.47%
0 0 307.1047 9 315.4732 LiftProj:4 77 2.65%
0 0 312.2538 3 315.4732 LiftProj:1 87 1.02%
0 0 314.4163 2 315.4732 LiftProj:2 94 0.34%
0 0 cutoff 315.4732 98 0.00% 0 0
CPXPARAM_MIP_Cuts_LiftProj 3
23
Node Left Objective IInf Best_Integer Best_Bound ItCnt Gap
0+ 0 nan nan 525.1284 0.0000 nan 100.00%
0 0 0 293.4740 293.4740 26 0.00% 0
CPXPARAM_MIP_Cuts_LiftProj 0
24
Node Left Objective IInf Best_Integer Best_Bound ItCnt Gap
0+ 0 nan nan 549.2671 0.0000 nan 100.00%
0+ 0 nan nan 473.7492 0.0000 nan 100.00%
0 0 363.2658 7 473.7492 363.2658 42 23.32%
0+ 0 nan nan 458.3613 363.2658 nan 20.75%
0 0 363.2658 7 458.3613 LiftProj:2 46 20.75%
0 0 363.8207 9 458.3613 LiftProj:2 50 20.63%
0+ 0 nan nan 435.2912 363.8207 nan 16.42%
0 0 364.2733 9 435.2912 LiftProj:2 51 16.32%
0 0 365.7428 9 435.2912 LiftProj:2 55 15.98%
0+ 0 nan nan 396.1684 365.7428 nan 7.68%
0 0 368.4005 7 396.1684 LiftProj:3 64 7.01%
0 0 368.4549 7 396.1684 LiftProj:2 67 7.00%
0 0 368.5081 7 396.1684 LiftProj:3 70 6.98%
0 0 368.6516 8 396.1684 LiftProj:3 73 6.95%
0 0 368.7256 9 396.1684 LiftProj:3 77 6.93%
0 0 368.7885 9 396.1684 LiftProj:3 82 6.91%
0 0 369.2258 8 396.1684 LiftProj:3 85 6.80%
0 0 369.5474 9 396.1684 LiftProj:2 90 6.72%
0 0 369.7933 9 396.1684 LiftProj:3 97 6.66%
0 0 369.8843 9 396.1684 LiftProj:3 99 6.63%
0 0 370.1329 9 396.1684 LiftProj:3 103 6.57%
0 0 370.3665 9 396.1684 LiftProj:4 107 6.51%
0 0 370.8700 9 396.1684 LiftProj:5 112 6.39%
0 0 370.9036 9 396.1684 LiftProj:3 114 6.38%
0 2 370.9437 8 396.1684 375.0739 114 5.32%
CPXPARAM_MIP_Cuts_LiftProj 11
25
Node Left Objective IInf Best_Integer Best_Bound ItCnt Gap
0+ 0 nan nan 549.2671 0.0000 nan 100.00%
0 0 0 372.4575 372.4575 43 0.00% 0
CPXPARAM_MIP_Cuts_LiftProj 0
26
Node Left Objective IInf Best_Integer Best_Bound ItCnt Gap
0+ 0 nan nan 549.2671 0.0000 nan 100.00%
0+ 0 nan nan 476.4585 0.0000 nan 100.00%
0 0 372.1627 6 476.4585 372.1627 30 21.89%
0 0 372.1627 6 476.4585 LiftProj:1 32 21.89%
0 0 372.3061 8 476.4585 LiftProj:1 36 21.86%
0+ 0 nan nan 457.4356 372.3061 nan 18.61%
0 0 372.4411 8 457.4356 LiftProj:1 38 18.58%
0 2 372.4411 8 457.4356 372.4411 38 18.58%
CPXPARAM_MIP_Cuts_LiftProj 3
27
Node Left Objective IInf Best_Integer Best_Bound ItCnt Gap
0+ 0 nan nan 549.2671 0.0000 nan 100.00%
0 0 0 385.0255 385.0255 33 0.00% 0
CPXPARAM_MIP_Cuts_LiftProj 0
28
Node Left Objective IInf Best_Integer Best_Bound ItCnt Gap
0+ 0 nan nan 941.7205 0.0000 nan 100.00%
0+ 0 nan nan 872.5219 0.0000 nan 100.00%
0 0 601.4591 6 872.5219 601.4591 44 31.07%
0+ 0 nan nan 737.8283 601.4591 nan 18.48%
0 0 601.4591 6 737.8283 LiftProj:2 48 18.48%
0+ 0 nan nan 652.5589 601.4591 nan 7.83%
0 0 602.2967 8 652.5589 LiftProj:2 53 7.70%
0 0 607.1603 8 652.5589 LiftProj:1 56 6.96%
0 0 608.4474 8 652.5589 LiftProj:3 60 6.76%
0 0 609.0904 8 652.5589 LiftProj:1 64 6.66%
0 0 611.1647 8 652.5589 LiftProj:4 69 6.34%
0 0 612.4106 8 652.5589 LiftProj:3 72 6.15%
0 0 615.7400 8 652.5589 LiftProj:4 84 5.64%
0 0 617.6529 8 652.5589 LiftProj:3 88 5.35%
0 0 620.0196 8 652.5589 LiftProj:4 95 4.99%
0 0 620.2177 8 652.5589 LiftProj:4 97 4.96%
0 0 621.5789 8 652.5589 LiftProj:3 105 4.75%
0 0 622.2030 8 652.5589 LiftProj:4 111 4.65%
0 0 622.5873 8 652.5589 LiftProj:3 120 4.59%
0 0 623.4955 8 652.5589 LiftProj:4 129 4.45%
0 0 623.8215 8 652.5589 LiftProj:3 135 4.40%
0 0 624.0086 8 652.5589 LiftProj:3 140 4.38%
0 0 624.1828 8 652.5589 LiftProj:4 144 4.35%
0 0 624.2516 8 652.5589 LiftProj:3 148 4.34%
0 2 626.0137 5 652.5589 626.0890 148 4.06%
CPXPARAM_MIP_Cuts_LiftProj 15
29
Node Left Objective IInf Best_Integer Best_Bound ItCnt Gap
0+ 0 nan nan 941.7205 0.0000 nan 100.00%
0 0 0 596.9704 596.9704 48 0.00% 0
CPXPARAM_MIP_Cuts_LiftProj 0
30
Node Left Objective IInf Best_Integer Best_Bound ItCnt Gap
0+ 0 nan nan 941.7205 0.0000 nan 100.00%
0+ 0 nan nan 877.2624 0.0000 nan 100.00%
0 0 601.4591 6 877.2624 601.4591 46 31.44%
0+ 0 nan nan 696.2579 601.4591 nan 13.62%
0 0 601.6959 8 696.2579 LiftProj:2 52 13.58%
0 0 611.2580 7 696.2579 LiftProj:5 62 12.21%
0+ 0 nan nan 652.5589 611.2580 nan 6.33%
0 0 612.3667 7 652.5589 LiftProj:3 69 6.16%
0 0 618.3430 8 652.5589 LiftProj:4 79 5.24%
0 0 620.2686 8 652.5589 LiftProj:1 85 4.95%
0 0 620.5248 7 652.5589 LiftProj:3 88 4.91%
0 0 622.5177 7 652.5589 LiftProj:4 98 4.60%
0 0 623.7376 7 652.5589 LiftProj:3 104 4.42%
0 0 625.0913 8 652.5589 LiftProj:2 111 4.21%
0 0 626.5021 7 652.5589 LiftProj:3 119 3.99%
0 0 627.5860 7 652.5589 LiftProj:5 121 3.83%
0 0 627.8505 8 652.5589 LiftProj:3 124 3.79%
0 0 628.4513 8 652.5589 LiftProj:3 130 3.69%
0 0 628.4810 8 652.5589 LiftProj:3 132 3.69%
0 0 cutoff 652.5589 628.4810 132 3.69% 0
CPXPARAM_MIP_Cuts_LiftProj 12
31
Node Left Objective IInf Best_Integer Best_Bound ItCnt Gap
0+ 0 nan nan 941.7205 0.0000 nan 100.00%
0 0 0 601.4591 601.4591 41 0.00% 0
CPXPARAM_MIP_Cuts_LiftProj 0
32
Node Left Objective IInf Best_Integer Best_Bound ItCnt Gap
0+ 0 nan nan 671.2898 0.0000 nan 100.00%
0+ 0 nan nan 538.6067 0.0000 nan 100.00%
0 0 285.1772 7 538.6067 285.1772 48 47.05%
0+ 0 nan nan 527.4518 285.1772 nan 45.93%
0 0 288.2599 9 527.4518 LiftProj:3 56 45.35%
0+ 0 nan nan 398.4261 288.2599 nan 27.65%
0 0 296.2202 9 398.4261 LiftProj:2 63 25.65%
0+ 0 nan nan 392.1998 296.2202 nan 24.47%
0 0 303.3713 9 392.1998 LiftProj:3 75 22.65%
0 0 303.8935 9 392.1998 LiftProj:4 80 22.52%
0 0 305.2573 9 392.1998 LiftProj:3 90 22.17%
0 0 305.4831 9 392.1998 LiftProj:4 97 22.11%
0 0 310.5104 9 392.1998 LiftProj:4 113 20.83%
0 0 316.1879 9 392.1998 LiftProj:6 124 19.38%
0 0 321.5400 9 392.1998 LiftProj:6 136 18.02%
0 0 324.6230 9 392.1998 LiftProj:5 147 17.23%
0 0 325.3805 9 392.1998 LiftProj:4 157 17.04%
0 0 327.2956 9 392.1998 LiftProj:6 165 16.55%
0 0 328.0376 9 392.1998 LiftProj:5 168 16.36%
0 0 329.4241 9 392.1998 LiftProj:5 178 16.01%
0 0 331.2828 9 392.1998 LiftProj:5 186 15.53%
0 0 333.5682 9 392.1998 LiftProj:5 195 14.95%
0 0 334.1659 9 392.1998 LiftProj:4 201 14.80%
0 0 334.3268 9 392.1998 LiftProj:3 206 14.76%
0 0 334.7913 9 392.1998 LiftProj:6 210 14.64%
0 0 335.7734 9 392.1998 LiftProj:6 217 14.39%
0 0 336.0037 9 392.1998 LiftProj:6 221 14.33%
0 0 337.6666 9 392.1998 LiftProj:11 232 13.90%
0 0 338.1631 9 392.1998 LiftProj:4 237 13.78%
0 0 338.4534 8 392.1998 LiftProj:5 244 13.70%
0 0 338.8342 9 392.1998 LiftProj:4 251 13.61%
0 0 339.4699 9 392.1998 LiftProj:5 263 13.44%
0 0 339.9380 9 392.1998 LiftProj:6 272 13.33%
0 0 340.4232 9 392.1998 LiftProj:3 279 13.20%
0 0 341.1280 9 392.1998 LiftProj:6 285 13.02%
0 0 341.2995 9 392.1998 LiftProj:5 289 12.98%
0 0 341.9387 9 392.1998 LiftProj:4 298 12.82%
0 0 342.8847 9 392.1998 LiftProj:6 307 12.57%
0 0 342.9821 9 392.1998 LiftProj:3 313 12.55%
0 0 343.0216 9 392.1998 LiftProj:4 317 12.54%
0 2 344.3593 8 392.1998 347.0144 317 11.52%
CPXPARAM_MIP_Cuts_LiftProj 20
33
Node Left Objective IInf Best_Integer Best_Bound ItCnt Gap
0+ 0 nan nan 671.2898 0.0000 nan 100.00%
0 0 304.9439 1 671.2898 304.9439 48 54.57%
0+ 0 nan nan 305.0518 304.9439 nan 0.04%
0 0 0 304.9870 304.9870 50 0.00% 0
CPXPARAM_MIP_Cuts_LiftProj 0
34
Node Left Objective IInf Best_Integer Best_Bound ItCnt Gap
0+ 0 nan nan 671.2898 0.0000 nan 100.00%
0+ 0 nan nan 548.6165 0.0000 nan 100.00%
0 0 304.9439 6 548.6165 304.9439 32 44.42%
0+ 0 nan nan 522.3973 304.9439 nan 41.63%
0 0 304.9439 6 522.3973 LiftProj:2 36 41.63%
0+ 0 nan nan 506.2534 304.9439 nan 39.76%
0 0 305.3229 8 506.2534 LiftProj:2 39 39.69%
0+ 0 nan nan 457.4879 305.3229 nan 33.26%
0 0 306.7979 8 457.4879 LiftProj:1 41 32.94%
0+ 0 nan nan 392.1998 306.7979 nan 21.78%
0 0 308.7415 8 392.1998 LiftProj:3 47 21.28%
0 0 313.1651 8 392.1998 LiftProj:3 51 20.15%
0 0 314.6891 8 392.1998 LiftProj:3 56 19.76%
0 0 317.9894 8 392.1998 LiftProj:4 65 18.92%
0 0 318.4211 8 392.1998 LiftProj:6 69 18.81%
0 0 329.6234 8 392.1998 LiftProj:4 82 15.96%
0 0 333.1078 8 392.1998 LiftProj:4 91 15.07%
0 0 335.3280 8 392.1998 LiftProj:5 97 14.50%
0 0 335.7965 7 392.1998 LiftProj:4 103 14.38%
0 0 336.5053 8 392.1998 LiftProj:5 109 14.20%
0 0 338.8218 8 392.1998 LiftProj:4 117 13.61%
0 0 341.2879 8 392.1998 LiftProj:3 124 12.98%
0 0 344.2231 9 392.1998 LiftProj:4 130 12.23%
0 0 344.8557 9 392.1998 LiftProj:4 140 12.07%
0 0 345.0301 9 392.1998 LiftProj:3 142 12.03%
0 0 346.1332 9 392.1998 LiftProj:4 148 11.75%
0 0 346.6500 9 392.1998 LiftProj:4 153 11.61%
0 0 346.7899 9 392.1998 LiftProj:3 159 11.58%
0 0 347.1335 9 392.1998 LiftProj:4 166 11.49%
0 0 347.2498 8 392.1998 LiftProj:4 169 11.46%
0 0 347.8808 8 392.1998 LiftProj:3 177 11.30%
0 0 348.0071 9 392.1998 LiftProj:4 181 11.27%
0 0 348.2876 9 392.1998 LiftProj:4 189 11.20%
0 0 348.5193 9 392.1998 LiftProj:6 192 11.14%
0 0 349.0310 8 392.1998 LiftProj:4 200 11.01%
0 0 349.1592 8 392.1998 LiftProj:12 209 10.97%
0 0 349.4744 9 392.1998 LiftProj:4 214 10.89%
0 0 349.5157 9 392.1998 LiftProj:3 216 10.88%
0 2 350.6670 8 392.1998 350.8183 216 10.55%
CPXPARAM_MIP_Cuts_LiftProj 19
35
Node Left Objective IInf Best_Integer Best_Bound ItCnt Gap
0+ 0 nan nan 671.2898 0.0000 nan 100.00%
0 0 0 363.5184 363.5184 29 0.00% 0
CPXPARAM_MIP_Cuts_LiftProj 0
36
Node Left Objective IInf Best_Integer Best_Bound ItCnt Gap
0+ 0 nan nan 758.0328 0.0000 nan 100.00%
0+ 0 nan nan 643.3001 0.0000 nan 100.00%
0 0 431.0120 7 643.3001 431.0120 48 33.00%
0+ 0 nan nan 591.9356 431.0120 nan 27.19%
0 0 431.7549 9 591.9356 LiftProj:3 55 27.06%
0 0 432.5944 9 591.9356 LiftProj:2 56 26.92%
0+ 0 nan nan 542.3114 432.5944 nan 20.23%
0 0 432.9957 8 542.3114 LiftProj:3 58 20.16%
0 0 434.1501 8 542.3114 LiftProj:4 60 19.94%
0+ 0 nan nan 515.6400 434.1501 nan 15.80%
0 0 435.3478 9 515.6400 LiftProj:3 62 15.57%
0 0 435.7243 9 515.6400 LiftProj:3 66 15.50%
0 0 438.6125 9 515.6400 LiftProj:5 71 14.94%
0 0 439.1997 9 515.6400 LiftProj:4 75 14.82%
0 0 440.7006 9 515.6400 LiftProj:4 82 14.53%
0 0 440.7948 9 515.6400 LiftProj:4 85 14.52%
0 0 440.9960 9 515.6400 LiftProj:4 89 14.48%
0 0 440.9967 9 515.6400 LiftProj:4 91 14.48%
0 0 441.0885 9 515.6400 LiftProj:4 94 14.46%
0 0 441.1785 9 515.6400 LiftProj:3 98 14.44%
0 0 441.6183 9 515.6400 LiftProj:4 105 14.36%
0 0 441.6493 9 515.6400 LiftProj:3 107 14.35%
0 2 441.6493 9 515.6400 441.8565 107 14.31%
CPXPARAM_MIP_Cuts_LiftProj 13
37
Node Left Objective IInf Best_Integer Best_Bound ItCnt Gap
0+ 0 nan nan 758.0328 0.0000 nan 100.00%
0 0 0 431.0120 431.0120 52 0.00% 0
CPXPARAM_MIP_Cuts_LiftProj 0
38
Node Left Objective IInf Best_Integer Best_Bound ItCnt Gap
0+ 0 nan nan 758.0328 0.0000 nan 100.00%
0+ 0 nan nan 644.4799 0.0000 nan 100.00%
0 0 431.2487 6 644.4799 431.2487 42 33.09%
0+ 0 nan nan 591.9356 431.2487 nan 27.15%
0 0 432.3337 8 591.9356 LiftProj:3 49 26.96%
0 0 433.3523 8 591.9356 LiftProj:2 52 26.79%
0 0 434.8680 8 591.9356 LiftProj:5 58 26.53%
0+ 0 nan nan 542.4191 434.8680 nan 19.83%
0 0 440.1966 9 542.4191 LiftProj:6 65 18.85%
0+ 0 nan nan 497.5652 440.1966 nan 11.53%
0 0 441.8956 9 497.5652 LiftProj:5 70 11.19%
0 0 443.4501 9 497.5652 LiftProj:4 77 10.88%
0 0 444.9152 9 497.5652 LiftProj:6 87 10.58%
0 0 445.8037 9 497.5652 LiftProj:5 93 10.40%
0 0 446.5790 9 497.5652 LiftProj:5 102 10.25%
0 0 447.1372 9 497.5652 LiftProj:8 106 10.13%
0 0 447.7462 9 497.5652 LiftProj:4 109 10.01%
0 0 448.8543 9 497.5652 LiftProj:4 117 9.79%
0 0 448.8677 9 497.5652 LiftProj:3 119 9.79%
0 0 449.2037 8 497.5652 LiftProj:3 125 9.72%
0 0 449.3179 8 497.5652 LiftProj:5 131 9.70%
0 0 450.1521 9 497.5652 LiftProj:5 137 9.53%
0 0 453.5268 9 497.5652 LiftProj:8 149 8.85%
0 0 454.5125 7 497.5652 LiftProj:9 160 8.65%
0 0 454.8600 8 497.5652 LiftProj:5 166 8.58%
0 0 455.4471 9 497.5652 LiftProj:3 173 8.46%
0 0 455.9099 9 497.5652 LiftProj:6 178 8.37%
0 0 456.3452 9 497.5652 LiftProj:7 186 8.28%
0 0 456.8253 9 497.5652 LiftProj:8 192 8.19%
0 0 456.8457 9 497.5652 LiftProj:4 193 8.18%
0 2 457.1096 7 497.5652 457.1828 193 8.12%
CPXPARAM_MIP_Cuts_LiftProj 16
39
Node Left Objective IInf Best_Integer Best_Bound ItCnt Gap
0+ 0 nan nan 758.0328 0.0000 nan 100.00%
0+ 0 nan nan 451.8439 0.0000 nan 100.00%
0 0 cutoff 451.8439 451.8439 34 0.00%
0 0 cutoff 451.8439 451.8439 34 0.00% 0
CPXPARAM_MIP_Cuts_LiftProj 0
